Linux optc-04-04 4.15.0-88-generic #88-Ubuntu SMP Tue Feb 11 20:11:34 UTC 2020 x86_64 x86_64 x86_64 GNU/Linux

top - 21:05:33 up 3 days,  7:41,  0 users,  load average: 0,66, 0,92, 0,97
Tasks: 467 gesamt,   1 laufend, 235 schlafend,   0 gestoppt,   0 Zombie
%CPU(s): 14,3 be,  3,6 sy,  0,0 ni, 82,1 un,  0,0 wa,  0,0 hi,  0,0 si,  0,0 st
KiB Spch : 65916192 gesamt, 62157624 frei,   727700 belegt,  3030868 Puff/Cache
KiB Swap:  8388604 gesamt,  8388604 frei,        0 belegt. 64612252 verfü Spch 

  PID USER      PR  NI    VIRT    RES    SHR S  %CPU %MEM     ZEIT+ BEFEHL
30605 bzfhende  20   0   52808   4400   3456 R  12,0  0,0   0:00.04 top
    1 root      20   0  233684   9260   6724 S   0,0  0,0   0:20.93 systemd
    2 root      20   0       0      0      0 S   0,0  0,0   0:00.35 kthreadd
    4 root       0 -20       0      0      0 I   0,0  0,0   0:00.00 kworker/0:+
    5 root      20   0       0      0      0 I   0,0  0,0   0:54.14 kworker/u9+
    7 root       0 -20       0      0      0 I   0,0  0,0   0:00.00 mm_percpu_+
    8 root      20   0       0      0      0 S   0,0  0,0   0:00.34 ksoftirqd/0
    9 root      20   0       0      0      0 I   0,0  0,0   1:09.57 rcu_sched

hard time limit: 00-04:10:00
hard mem limit: 38600

SLURM jobID: 6405619

@01 /nfs/OPTI/bzfhende/instances//./miplib2010_iis-cov/instances/iis-10-80-0-cov.mps.gz ===========
-----------------------------
So 8. Mär 21:05:33 CET 2020
-----------------------------
@03 1583697933
@05 7200
SCIP version 7.0.0 [precision: 8 byte] [memory: block] [mode: optimized] [LP solver: CPLEX 12.10.0.0] [GitHash: 297532de76]
Copyright (C) 2002-2020 Konrad-Zuse-Zentrum fuer Informationstechnik Berlin (ZIB)

External codes: 
  Readline 7.0         GNU library for command line editing (gnu.org/s/readline)
  CPLEX 12.10.0.0      Linear Programming Solver developed by IBM (www.cplex.com)
  CppAD 20180000.0     Algorithmic Differentiation of C++ algorithms developed by B. Bell (www.coin-or.org/CppAD)
  ZLIB 1.2.11          General purpose compression library by J. Gailly and M. Adler (zlib.net)
  GMP 6.1.2            GNU Multiple Precision Arithmetic Library developed by T. Granlund (gmplib.org)
  bliss 0.73p          Computing Graph Automorphism Groups by T. Junttila and P. Kaski (http://www.tcs.hut.fi/Software/bliss/)

user parameter file <scip.set> not found - using default parameters

SCIP> @04 1583697933
-----------------------------
So 8. Mär 21:05:33 CET 2020
-----------------------------

=ready=
